6205.06
133 185 189 185 189 133 185 133 132 132 189 185 189 189 132 189 189 185 132 185 185 156 133 133 189 189 189 189 189 132 133 133 189 189 185 185 133 132 189 185 132 189 132 185 133 185 189 189 133 132 189 189 185 189 185 185 185 185 185 133 133 185 185 94 189 185 185 185 189 132 189 189 189 189 189 133 133 132 189 132 156 185 189 185 133 132 132 189 185 185 133 133 189 189 133 132 189 132 185 132 189 185 94 132 185 132 185 185 185 185 185 185 133 185 132 132 189 185 132 189 132 185 189 189 132 133 189 185 189 133 20 189 189 185 189 133 185 185 185 94 189 185 189 185 133 185 185 133 156 133 189 185 128 20 185 132 132 189 185 132 133 189 132 185 189 133 132 133 132 185 189 132 189 189 132 132 189 185 132 133 189 133 185 132 189 189 189 133 132 133 189 132 185 189 185 185 189 189 133 189 
